NAME : portcgen-30-3
COMMENT : portcgen N=30, seed=3
TYPE : TSP
DIMENSION : 30
EDGE_WEIGHT_TYPE : EUC_2D
NODE_COORD_SECTION
1 235414 108420
2 -81141 -194024
3 -120597 274709
4 -96845 299350
5 -190449 17461
6 94100 -225031
7 -23718 -246449
8 166809 190409
9 -155643 -248321
10 65754 -167805
11 -156720 -26399
12 146787 270926
13 60594 -22417
14 -258049 -286187
15 -49278 107031
16 99618 64165
17 465163 319756
18 20162 55393
19 110505 97284
20 -322696 -39858
21 -159583 222664
22 -78442 99972
23 -9320 -76351
24 8182 75249
25 44514 321128
26 213288 -198192
27 194694 -87551
28 153165 -104035
29 32763 320902
30 26995 91051
